* ENCODING=ISO-8859-1
NAME          
ROWS
 N  obj1    
 L  c1      
 L  c2      
 L  c3      
 L  c4      
 L  c5      
 L  c6      
 L  c7      
 E  c8      
 E  c9      
 E  c10     
 E  c11     
 E  c12     
 E  c13     
COLUMNS
    h1        c1                              1
    h2        c3                              1
    h2        c9                             -1
    h3        c2                              1
    h3        c11                            -1
    w1        c4                              1
    w1        c5                              1
    w2        c6                              1
    w2        c8                             -1
    w3        c7                              1
    w3        c10                            -1
    H         obj1                            1
    H         c1                             -1
    H         c3                             -1
    W         obj1                            1
    W         c6                             -1
    W         c7                             -1
    x1        c4                              1
    x1        c5                              1
    x2        c4                             -1
    x2        c6                              1
    x3        c5                             -1
    x3        c7                              1
    y1        c1                              1
    y2        c2                             -1
    y2        c3                              1
    y3        c2                              1
    MARK0000  'MARKER'                 'INTORG'
    d21       c8                              8
    d21       c9                              3
    d21       c12                             1
    d22       c8                             12
    d22       c9                              2
    d22       c12                             1
    d23       c8                              4
    d23       c9                              6
    d23       c12                             1
    d31       c10                             5
    d31       c11                             8
    d31       c13                             1
    d32       c10                             8
    d32       c11                             5
    d32       c13                             1
    MARK0001  'MARKER'                 'INTEND'
RHS
    rhs       c12                             1
    rhs       c13                             1
BOUNDS
 BV bnd       d21     
 BV bnd       d22     
 BV bnd       d23     
 BV bnd       d31     
 BV bnd       d32     
ENDATA
